decision_x1=[0,4];
decision_x2=[0,4];
decision_x3=[0,4];
decision_x4=[0,4];
decision_x5=[0,4];
random_y1=[0,4];
constraint_x2_x1=[
0,1,2.5|
0,2,6.7|
0,3,0.043|
0,4,8.1|
1,0,6.2|
1,2,0.81|
1,3,1.9|
1,4,0.79|
2,0,4.9|
2,1,0.32|
2,3,6.7|
2,4,7|
3,0,7.2|
3,1,3.2|
3,2,3.5|
3,4,5.7|
4,0,9.7|
4,1,1.8|
4,2,9.7|
4,3,4.7|
];
constraint_x4_x1=[
0,1,1.7|
0,2,0.79|
0,3,4.7|
0,4,4.6|
1,0,7.3|
1,2,1.8|
1,3,7.5|
1,4,5.8|
2,0,7.7|
2,1,4.1|
2,3,6.1|
2,4,1.3|
3,0,6.5|
3,1,9.1|
3,2,4.6|
3,4,4.1|
4,0,9.1|
4,1,3.5|
4,2,2.8|
4,3,6|
];
constraint_x4_x2=[
0,1,9.2|
0,2,8.5|
0,3,1.7|
0,4,7.9|
1,0,5|
1,2,7.9|
1,3,6.7|
1,4,8.8|
2,0,6.4|
2,1,3.8|
2,3,6.5|
2,4,3.6|
3,0,9|
3,1,7.5|
3,2,4.7|
3,4,6.1|
4,0,0.93|
4,1,8.8|
4,2,1|
4,3,4.6|
];
constraint_x5_x1=[
0,1,7.9|
0,2,7.9|
0,3,3.8|
0,4,5.8|
1,0,7.1|
1,2,6.2|
1,3,4.2|
1,4,7.2|
2,0,5.5|
2,1,7.9|
2,3,2.8|
2,4,2.7|
3,0,0.32|
3,1,3.8|
3,2,9.4|
3,4,9.2|
4,0,8.5|
4,1,8.1|
4,2,3.4|
4,3,3.5|
];
constraint_x5_x3=[
0,1,7|
0,2,7.9|
0,3,7|
0,4,1|
1,0,9.4|
1,2,1.9|
1,3,5.9|
1,4,4.2|
2,0,7|
2,1,5.1|
2,3,3.8|
2,4,8.5|
3,0,4.8|
3,1,8.4|
3,2,7.9|
3,4,3.1|
4,0,5.7|
4,1,5.9|
4,2,0.77|
4,3,7.1|
];
constraint_x1_y1=[
0,0,0.29|
0,1,4.1|
0,2,0.57|
0,3,9.7|
0,4,0.98|
1,0,3.7|
1,1,2.8|
1,2,0.29|
1,3,5|
1,4,7.4|
2,0,8.7|
2,1,4.2|
2,2,6.7|
2,3,2.3|
2,4,6.4|
3,0,7.9|
3,1,9.7|
3,2,2.6|
3,3,9.9|
3,4,2.6|
4,0,0.37|
4,1,2.8|
4,2,0.82|
4,3,7.8|
4,4,1|
];
initial_distribution_y1=[0.15,0.22,0.3,0.004,0.33];
transition_y1=[
0.07,0.28,0.14,0.34,0.16|
0.1,0.38,0.2,0.16,0.16|
0.19,0.025,0.0078,0.42,0.36|
0.25,0.13,0.17,0.35,0.1|
0.11,0.23,0.24,0.13,0.29|
];
